1015.42
0 88 79 59 19 70 10 101 28 94 102 44 128 23 32 40 98 153 56 89 37 146 36 78 42 60 169 110 155 156 168 82 49 61 135 164 166 71 87 66 104 31 123 8 99 171 18 116 106 52 167 15 149 64 67 109 55 170 34 30 121 24 72 108 50 125 126 145 154 54 74 11 47 112 124 137 103 129 151 136 3 9 134 142 143 127 20 75 174 5 91 86 33 38 85 62 144 29 69 26 161 4 139 150 100 7 39 113 53 147 83 14 21 65 132 63 46 118 92 133 84 158 58 159 45 131 43 77 17 107 93 172 76 90 140 120 141 41 1 96 73 81 97 25 130 111 152 27 12 35 165 114 13 163 115 22 119 138 162 148 2 80 157 68 173 48 95 57 6 51 16 105 117 160 122
